language ESSENCE' 1.0

letting boxes_PartitionAsSet_ExplicitR6_ExplicitVarSizeWithDummy be [[1, 3; int(1..2)], [2, 3; int(1..2)]; int(1..2)]
$ Visualisation for boxes_PartitionAsSet_ExplicitR6_ExplicitVarSizeWithDummy
$ 1 3
$ 2 3

